Solver command line: []

Read LP format model from file C:\Users\wlhlm\AppData\Local\Temp\tmpz3ja_4pf.pyomo.lp
Reading time = 70.13 seconds
objective: 1002984 rows, 875999 columns, 78984486 nonzeros
Set parameter MIPGap to value 0.03
Gurobi Optimizer version 12.0.1 build v12.0.1rc0 (win64 - Windows 11.0 (26100.2))

CPU model: Intel(R) Core(TM) Ultra 7 258V, instruction set [SSE2|AVX|AVX2]
Thread count: 8 physical cores, 8 logical processors, using up to 8 threads

Non-default parameters:
MIPGap  0.03

Optimize a model with 1002984 rows, 875999 columns and 78984486 nonzeros
Model fingerprint: 0x10a7fed3
Model has 8759 quadratic constraints
Variable types: 753360 continuous, 122639 integer (105120 binary)
Coefficient statistics:
  Matrix range     [7e-03, 2e+02]
  QMatrix range    [1e+00, 1e+00]
  Objective range  [1e-02, 5e+02]
  Bounds range     [1e+00, 3e+00]
  RHS range        [8e-05, 1e+04]
Presolve removed 96360 rows and 122640 columns (presolve time = 7s)...
Presolve removed 157680 rows and 122640 columns (presolve time = 17s)...
Presolve removed 617548 rows and 494907 columns (presolve time = 22s)...
Presolve removed 656935 rows and 529949 columns (presolve time = 28s)...
Presolve removed 678798 rows and 547469 columns (presolve time = 33s)...
Presolve removed 696804 rows and 554397 columns (presolve time = 36s)...
Presolve removed 696813 rows and 554406 columns (presolve time = 41s)...
Presolve removed 699383 rows and 556976 columns (presolve time = 46s)...
Presolve removed 702103 rows and 559696 columns (presolve time = 50s)...
Presolve removed 702103 rows and 559696 columns (presolve time = 55s)...
Presolve removed 702103 rows and 559696 columns (presolve time = 69s)...
Presolve removed 702103 rows and 559696 columns (presolve time = 74s)...
Presolve removed 710862 rows and 559696 columns (presolve time = 86s)...
Presolve removed 710862 rows and 559696 columns (presolve time = 91s)...
Presolve removed 710862 rows and 559697 columns (presolve time = 95s)...
Presolve removed 710862 rows and 559697 columns (presolve time = 108s)...
Presolve removed 815138 rows and 663857 columns (presolve time = 110s)...
Presolve removed 806379 rows and 663858 columns
Presolve time: 110.22s
Presolved: 196605 rows, 212141 columns, 619647 nonzeros
Variable types: 148981 continuous, 63160 integer (63160 binary)
Performing another presolve...
Presolve removed 52556 rows and 52558 columns (presolve time = 6s)...
Presolve removed 52556 rows and 52558 columns
Presolve time: 6.40s
Deterministic concurrent LP optimizer: primal and dual simplex
Showing primal log only...


Root simplex log...

Iteration    Objective       Primal Inf.    Dual Inf.      Time
       0    3.4959103e+07   8.583573e+07   5.667039e+13    120s
   16970    3.8894595e+07   2.973746e+07   1.619967e+13    121s
Concurrent spin time: 0.00s

Solved with dual simplex

Root simplex log...

Iteration    Objective       Primal Inf.    Dual Inf.      Time
   63770    2.3097142e+07   0.000000e+00   0.000000e+00    123s

Root relaxation: objective 2.309714e+07, 63770 iterations, 3.31 seconds (4.23 work units)
Total elapsed time = 122.55s (DegenMoves)

    Nodes    |    Current Node    |     Objective Bounds      |     Work
 Expl Unexpl |  Obj  Depth IntInf | Incumbent    BestBd   Gap | It/Node Time

     0     0 2.3097e+07    0  490          - 2.3097e+07      -     -  124s
H    0     0                    2.345126e+07 2.3097e+07  1.51%     -  125s

Explored 1 nodes (71769 simplex iterations) in 127.07 seconds (65.57 work units)
Thread count was 8 (of 8 available processors)

Solution count 1: 2.34513e+07 

Optimal solution found (tolerance 3.00e-02)
Best objective 2.345125985283e+07, best bound 2.309714155004e+07, gap 1.5100%

